c FILE /home/rafael/Documents/HappySet/MIHS/inputs/happygen/output/graph_scale_free_k10_p0.1_v100_20241127_083908.txt
c SOURCE This is a scale-free graph formed for the happy graph colouring problem.
c DESCRIPTION It was generated using the problem generator of Rhyd Lewis
c
c GRAPH STATS
c Seed                             = -1138123077
c Number of Nodes                  = 100
c Number of colours k              = 10
c Number of pre-assignments        = 10
c Number of links per new node     = 5
c Density                          = 0.0979798
c 
c The degrees of nodes 1 to 100, respectively, are as follows 
c [32, 31, 31, 26, 24, 23, 23, 20, 20, 20, 18, 18, 17, 16, 16, 15, 14, 14, 13, 13, 13, 12, 12, 12, 12, 11, 
c  11, 10, 10, 10, 10, 10, 10, 9, 9, 9, 9, 9, 9, 9, 9, 8, 8, 8, 8, 8, 8, 8, 8, 7, 7, 
c  7, 7, 7, 7, 7, 6, 6, 6, 6, 6, 6, 6, 6, 6, 6, 6, 6, 6, 6, 6, 6, 6, 6, 5, 5, 
c  5, 5, 5, 5, 5, 5, 5, 5, 5, 5, 5, 5, 5, 5, 5, 5, 5, 5, 5, 5, 5, 5, 5, 5] 
c  
p edge 100 485 10
e 1 2
e 1 3
e 1 5
e 1 6
e 1 7
e 1 8
e 1 10
e 1 11
e 1 13
e 1 16
e 1 24
e 1 31
e 1 33
e 1 35
e 1 36
e 1 38
e 1 45
e 1 51
e 1 55
e 1 62
e 1 63
e 1 64
e 1 66
e 1 68
e 1 70
e 1 75
e 1 76
e 1 80
e 1 87
e 1 93
e 1 95
e 1 96
e 2 3
e 2 5
e 2 6
e 2 7
e 2 8
e 2 9
e 2 10
e 2 11
e 2 13
e 2 16
e 2 17
e 2 18
e 2 20
e 2 22
e 2 23
e 2 25
e 2 30
e 2 40
e 2 51
e 2 52
e 2 57
e 2 59
e 2 67
e 2 71
e 2 73
e 2 83
e 2 86
e 2 87
e 2 95
e 2 98
e 3 4
e 3 5
e 3 6
e 3 7
e 3 11
e 3 12
e 3 13
e 3 18
e 3 19
e 3 20
e 3 21
e 3 25
e 3 27
e 3 28
e 3 32
e 3 34
e 3 35
e 3 40
e 3 44
e 3 52
e 3 55
e 3 62
e 3 63
e 3 64
e 3 67
e 3 73
e 3 81
e 3 95
e 3 96
e 4 5
e 4 7
e 4 8
e 4 11
e 4 12
e 4 13
e 4 19
e 4 22
e 4 23
e 4 24
e 4 29
e 4 30
e 4 32
e 4 37
e 4 38
e 4 46
e 4 51
e 4 52
e 4 53
e 4 56
e 4 65
e 4 66
e 4 80
e 4 82
e 4 85
e 5 6
e 5 8
e 5 9
e 5 12
e 5 13
e 5 17
e 5 19
e 5 20
e 5 24
e 5 26
e 5 28
e 5 34
e 5 41
e 5 45
e 5 54
e 5 67
e 5 74
e 5 76
e 5 77
e 5 97
e 6 7
e 6 8
e 6 9
e 6 10
e 6 13
e 6 21
e 6 23
e 6 25
e 6 32
e 6 38
e 6 51
e 6 54
e 6 58
e 6 63
e 6 71
e 6 74
e 6 79
e 6 80
e 6 97
e 7 12
e 7 13
e 7 14
e 7 19
e 7 22
e 7 23
e 7 31
e 7 37
e 7 43
e 7 46
e 7 49
e 7 75
e 7 76
e 7 78
e 7 79
e 7 81
e 7 91
e 7 99
e 8 11
e 8 13
e 8 14
e 8 15
e 8 16
e 8 17
e 8 31
e 8 33
e 8 43
e 8 46
e 8 52
e 8 54
e 8 69
e 8 85
e 8 98
e 9 11
e 9 13
e 9 20
e 9 21
e 9 22
e 9 29
e 9 30
e 9 31
e 9 34
e 9 35
e 9 43
e 9 47
e 9 48
e 9 76
e 9 84
e 9 89
e 9 97
e 10 14
e 10 16
e 10 18
e 10 19
e 10 32
e 10 42
e 10 47
e 10 48
e 10 50
e 10 57
e 10 59
e 10 61
e 10 67
e 10 83
e 10 84
e 10 87
e 10 88
e 11 12
e 11 16
e 11 18
e 11 19
e 11 22
e 11 27
e 11 34
e 11 42
e 11 50
e 11 60
e 11 68
e 11 84
e 12 14
e 12 15
e 12 24
e 12 25
e 12 32
e 12 33
e 12 35
e 12 36
e 12 41
e 12 42
e 12 45
e 12 49
e 12 50
e 13 16
e 13 29
e 13 46
e 13 50
e 13 58
e 13 70
e 13 89
e 13 95
e 14 23
e 14 28
e 14 29
e 14 36
e 14 39
e 14 44
e 14 47
e 14 54
e 14 77
e 14 78
e 14 92
e 14 100
e 15 17
e 15 19
e 15 23
e 15 26
e 15 27
e 15 37
e 15 39
e 15 44
e 15 47
e 15 48
e 15 55
e 15 56
e 15 73
e 15 87
e 16 17
e 16 20
e 16 24
e 16 50
e 16 68
e 16 73
e 16 77
e 16 83
e 16 98
e 17 19
e 17 34
e 17 35
e 17 36
e 17 42
e 17 67
e 17 75
e 17 82
e 17 93
e 18 31
e 18 36
e 18 42
e 18 45
e 18 47
e 18 57
e 18 68
e 18 69
e 18 72
e 18 77
e 19 23
e 19 26
e 19 44
e 19 55
e 19 71
e 20 27
e 20 42
e 20 56
e 20 64
e 20 65
e 20 80
e 20 89
e 20 99
e 21 28
e 21 36
e 21 41
e 21 59
e 21 60
e 21 69
e 21 75
e 21 77
e 21 94
e 21 96
e 22 33
e 22 38
e 22 43
e 22 52
e 22 65
e 22 68
e 22 90
e 23 28
e 23 49
e 23 59
e 23 71
e 23 79
e 24 28
e 24 37
e 24 57
e 24 66
e 24 83
e 24 84
e 24 92
e 25 27
e 25 43
e 25 44
e 25 56
e 25 61
e 25 63
e 25 66
e 25 89
e 26 36
e 26 46
e 26 52
e 26 53
e 26 58
e 26 60
e 26 63
e 26 74
e 27 41
e 27 61
e 27 64
e 27 69
e 27 78
e 27 86
e 28 30
e 28 75
e 28 90
e 28 99
e 29 35
e 29 39
e 29 45
e 29 59
e 29 90
e 29 97
e 30 52
e 30 57
e 30 70
e 30 72
e 30 74
e 30 94
e 31 40
e 31 78
e 31 82
e 31 85
e 31 93
e 32 39
e 32 60
e 32 72
e 32 81
e 32 91
e 33 38
e 33 48
e 33 49
e 33 50
e 33 78
e 33 93
e 34 43
e 34 51
e 34 58
e 34 62
e 35 86
e 35 88
e 35 100
e 36 58
e 36 76
e 37 42
e 37 48
e 37 61
e 37 65
e 37 100
e 38 54
e 38 61
e 38 86
e 38 99
e 39 46
e 39 72
e 39 81
e 39 84
e 39 90
e 40 44
e 40 45
e 40 55
e 40 71
e 40 81
e 40 82
e 41 57
e 41 70
e 41 85
e 41 93
e 41 94
e 42 70
e 43 56
e 43 98
e 44 53
e 44 85
e 45 53
e 45 72
e 46 49
e 46 62
e 47 62
e 47 66
e 47 69
e 48 65
e 48 82
e 48 88
e 49 88
e 49 94
e 49 98
e 50 74
e 51 53
e 51 64
e 53 88
e 53 100
e 54 86
e 54 92
e 55 92
e 55 94
e 56 91
e 56 92
e 58 60
e 59 91
e 60 79
e 61 80
e 62 96
e 63 95
e 64 79
e 65 87
e 66 73
e 67 97
e 68 83
e 69 89
e 70 91
e 71 96
e 72 90
e 73 100
e 74 99
n 35 6
n 43 8
n 47 2
n 51 4
n 52 3
n 57 10
n 60 7
n 73 1
n 83 9
n 94 5
